networks/zoo_16_45/zoo_16_45-lower.txt
Number of groups: 7
Flow 6: {1 8 0} {8 16 0} 
Flow 7: {2 3 0} {3 6 0} {6 1 0} {1 9 0} 
Flow 15: {3 4 0} {4 5 0} {5 13 0} 
Flow 25: {4 3 0} {3 2 0} {2 10 0} 
Flow 28: {5 1 0} {1 7 0} {7 15 0} 
Flow 38: {7 1 0} {1 6 0} {6 3 0} {3 11 0} 
Flow 43: {8 1 0} {1 5 0} {5 4 0} {4 12 0} 
Time taken running everything: 0 seconds
