networks/zoo_16_45/zoo_16_45-lower.sol
<?xml version = "1.0" encoding="UTF-8" standalone="yes"?>
<CPLEXSolution version="1.2">
 <header
   problemName="networks/zoo_16_45/zoo_16_45-lower.lp"
   solutionName="incumbent"
   solutionIndex="-1"
   objectiveValue="7"
   solutionTypeValue="3"
   solutionTypeString="primal"
   solutionStatusValue="101"
   solutionStatusString="integer optimal solution"
   solutionMethodString="mip"
   primalFeasible="1"
   dualFeasible="1"
   MIPNodes="0"
   MIPIterations="67"
   writeLevel="3"/>
 <quality
   epInt="1.0000000000000001e-05"
   epRHS="9.9999999999999995e-07"
   maxIntInfeas="0"
   maxPrimalInfeas="0"
   maxX="1"
   maxSlack="1"/>
 <variables>
  <variable name="Y(6,8)" index="82" value="1"/>
  <variable name="Y(7,1)" index="90" value="1"/>
  <variable name="Y(15,5)" index="214" value="1"/>
  <variable name="Y(25,2)" index="361" value="1"/>
  <variable name="Y(28,7)" index="411" value="1"/>
  <variable name="Y(38,3)" index="557" value="1"/>
  <variable name="Y(43,4)" index="633" value="1"/>
  <variable name="X(1,5,43)" index="717" value="1"/>
  <variable name="X(1,6,38)" index="757" value="1"/>
  <variable name="X(1,7,28)" index="792" value="1"/>
  <variable name="X(1,8,6)" index="815" value="1"/>
  <variable name="X(1,9,7)" index="861" value="1"/>
  <variable name="X(2,3,7)" index="906" value="1"/>
  <variable name="X(2,10,25)" index="969" value="1"/>
  <variable name="X(3,2,25)" index="1014" value="1"/>
  <variable name="X(3,4,15)" index="1049" value="1"/>
  <variable name="X(3,6,7)" index="1086" value="1"/>
  <variable name="X(3,11,38)" index="1162" value="1"/>
  <variable name="X(4,3,25)" index="1194" value="1"/>
  <variable name="X(4,5,15)" index="1229" value="1"/>
  <variable name="X(4,12,43)" index="1302" value="1"/>
  <variable name="X(5,1,28)" index="1332" value="1"/>
  <variable name="X(5,4,43)" index="1392" value="1"/>
  <variable name="X(5,13,15)" index="1409" value="1"/>
  <variable name="X(6,1,7)" index="1446" value="1"/>
  <variable name="X(6,3,38)" index="1522" value="1"/>
  <variable name="X(7,1,38)" index="1567" value="1"/>
  <variable name="X(7,15,28)" index="1602" value="1"/>
  <variable name="X(8,1,43)" index="1662" value="1"/>
  <variable name="X(8,16,6)" index="1670" value="1"/>
 </variables>
</CPLEXSolution>
